c FILE /home/rafael/Documents/HappySet/MIHS/inputs/happygen/output/graph_scale_free_k2_p0.4_v100_20241127_083759.txt
c SOURCE This is a scale-free graph formed for the happy graph colouring problem.
c DESCRIPTION It was generated using the problem generator of Rhyd Lewis
c
c GRAPH STATS
c Seed                             = -784377479
c Number of Nodes                  = 100
c Number of colours k              = 2
c Number of pre-assignments        = 40
c Number of links per new node     = 5
c Density                          = 0.0979798
c 
c The degrees of nodes 1 to 100, respectively, are as follows 
c [41, 31, 30, 27, 26, 26, 22, 22, 20, 20, 17, 17, 17, 17, 16, 16, 16, 15, 15, 15, 14, 13, 12, 11, 11, 11, 
c  10, 10, 9, 9, 9, 9, 9, 9, 9, 9, 8, 8, 8, 8, 8, 8, 7, 7, 7, 7, 7, 7, 7, 7, 7, 
c  7, 7, 7, 7, 6, 6, 6, 6, 6, 6, 6, 6, 6, 6, 6, 6, 6, 6, 6, 6, 5, 5, 5, 5, 5, 
c  5, 5, 5, 5, 5, 5, 5, 5, 5, 5, 5, 5, 5, 5, 5, 5, 5, 5, 5, 5, 5, 5, 5, 5] 
c  
p edge 100 485 2
e 1 2
e 1 3
e 1 4
e 1 5
e 1 7
e 1 8
e 1 9
e 1 11
e 1 15
e 1 20
e 1 21
e 1 24
e 1 29
e 1 31
e 1 32
e 1 33
e 1 34
e 1 36
e 1 37
e 1 38
e 1 42
e 1 43
e 1 46
e 1 47
e 1 49
e 1 51
e 1 54
e 1 57
e 1 58
e 1 59
e 1 60
e 1 64
e 1 67
e 1 72
e 1 73
e 1 75
e 1 78
e 1 88
e 1 91
e 1 94
e 1 98
e 2 3
e 2 4
e 2 5
e 2 6
e 2 7
e 2 9
e 2 11
e 2 12
e 2 14
e 2 18
e 2 19
e 2 21
e 2 23
e 2 24
e 2 30
e 2 34
e 2 37
e 2 40
e 2 43
e 2 50
e 2 56
e 2 64
e 2 69
e 2 72
e 2 73
e 2 81
e 2 84
e 2 86
e 2 96
e 2 98
e 3 4
e 3 5
e 3 6
e 3 7
e 3 9
e 3 10
e 3 11
e 3 13
e 3 15
e 3 18
e 3 19
e 3 23
e 3 24
e 3 28
e 3 32
e 3 36
e 3 47
e 3 50
e 3 51
e 3 56
e 3 61
e 3 63
e 3 70
e 3 82
e 3 92
e 3 94
e 3 97
e 3 100
e 4 5
e 4 6
e 4 7
e 4 9
e 4 10
e 4 11
e 4 12
e 4 18
e 4 19
e 4 20
e 4 25
e 4 26
e 4 28
e 4 30
e 4 31
e 4 40
e 4 41
e 4 43
e 4 45
e 4 63
e 4 65
e 4 66
e 4 76
e 4 81
e 5 6
e 5 7
e 5 8
e 5 10
e 5 13
e 5 15
e 5 16
e 5 20
e 5 21
e 5 23
e 5 30
e 5 37
e 5 44
e 5 46
e 5 55
e 5 57
e 5 59
e 5 72
e 5 75
e 5 77
e 5 80
e 5 88
e 6 7
e 6 14
e 6 18
e 6 21
e 6 22
e 6 24
e 6 25
e 6 31
e 6 33
e 6 44
e 6 46
e 6 53
e 6 54
e 6 56
e 6 59
e 6 72
e 6 76
e 6 77
e 6 87
e 6 88
e 6 89
e 6 97
e 7 8
e 7 9
e 7 10
e 7 11
e 7 19
e 7 22
e 7 38
e 7 45
e 7 49
e 7 51
e 7 54
e 7 56
e 7 63
e 7 66
e 7 69
e 7 89
e 8 9
e 8 12
e 8 13
e 8 16
e 8 29
e 8 30
e 8 31
e 8 36
e 8 37
e 8 42
e 8 44
e 8 45
e 8 46
e 8 64
e 8 65
e 8 70
e 8 76
e 8 80
e 8 86
e 9 10
e 9 12
e 9 13
e 9 18
e 9 22
e 9 28
e 9 29
e 9 32
e 9 38
e 9 50
e 9 55
e 9 62
e 9 80
e 9 86
e 10 12
e 10 13
e 10 14
e 10 15
e 10 19
e 10 20
e 10 23
e 10 25
e 10 30
e 10 44
e 10 45
e 10 58
e 10 75
e 10 85
e 10 95
e 11 12
e 11 25
e 11 27
e 11 32
e 11 34
e 11 36
e 11 38
e 11 48
e 11 62
e 11 68
e 11 82
e 11 84
e 12 15
e 12 16
e 12 21
e 12 39
e 12 65
e 12 68
e 12 74
e 12 78
e 12 86
e 12 93
e 12 96
e 13 26
e 13 28
e 13 40
e 13 41
e 13 42
e 13 46
e 13 47
e 13 48
e 13 49
e 13 56
e 13 61
e 13 99
e 14 16
e 14 17
e 14 27
e 14 37
e 14 41
e 14 45
e 14 47
e 14 53
e 14 64
e 14 67
e 14 80
e 14 82
e 14 94
e 14 98
e 15 16
e 15 50
e 15 52
e 15 55
e 15 57
e 15 61
e 15 69
e 15 77
e 15 88
e 15 90
e 15 96
e 16 18
e 16 20
e 16 32
e 16 34
e 16 35
e 16 43
e 16 44
e 16 49
e 16 68
e 16 93
e 16 95
e 17 21
e 17 22
e 17 24
e 17 37
e 17 42
e 17 52
e 17 62
e 17 67
e 17 69
e 17 70
e 17 79
e 17 86
e 17 93
e 17 99
e 17 100
e 18 22
e 18 23
e 18 24
e 18 26
e 18 60
e 18 71
e 18 74
e 18 87
e 18 96
e 19 25
e 19 29
e 19 31
e 19 45
e 19 58
e 19 73
e 19 81
e 19 83
e 19 84
e 19 87
e 20 29
e 20 35
e 20 38
e 20 43
e 20 57
e 20 61
e 20 63
e 20 75
e 20 79
e 20 92
e 21 33
e 21 34
e 21 36
e 21 39
e 21 52
e 21 70
e 21 82
e 21 88
e 22 26
e 22 30
e 22 41
e 22 47
e 22 52
e 22 65
e 22 87
e 22 97
e 23 27
e 23 33
e 23 48
e 23 59
e 23 81
e 23 83
e 23 97
e 24 55
e 24 76
e 24 83
e 24 89
e 24 99
e 25 26
e 25 39
e 25 40
e 25 64
e 25 67
e 25 70
e 26 39
e 26 57
e 26 61
e 26 75
e 26 79
e 26 82
e 27 31
e 27 38
e 27 51
e 27 78
e 27 83
e 27 90
e 27 94
e 28 39
e 28 51
e 28 52
e 28 59
e 28 63
e 28 73
e 29 40
e 29 41
e 29 60
e 29 100
e 30 35
e 30 48
e 30 80
e 31 62
e 31 78
e 31 81
e 32 48
e 32 49
e 32 54
e 32 85
e 33 35
e 33 47
e 33 71
e 33 74
e 33 79
e 34 76
e 34 83
e 34 97
e 34 99
e 35 40
e 35 78
e 35 84
e 35 85
e 35 95
e 36 66
e 36 68
e 36 77
e 36 92
e 37 58
e 37 100
e 38 85
e 38 90
e 39 44
e 39 53
e 39 74
e 40 60
e 40 84
e 41 71
e 41 90
e 41 92
e 42 63
e 42 85
e 42 91
e 42 92
e 43 53
e 43 96
e 44 72
e 45 58
e 46 50
e 46 66
e 47 60
e 48 53
e 48 74
e 49 54
e 49 93
e 50 73
e 50 98
e 51 94
e 51 95
e 52 67
e 52 91
e 53 55
e 53 68
e 54 69
e 54 77
e 55 71
e 55 91
e 56 87
e 57 79
e 58 95
e 59 66
e 60 100
e 61 62
e 62 65
e 64 93
e 65 89
e 66 99
e 67 89
e 68 90
e 69 71
e 70 91
e 71 98
n 4 1
n 6 1
n 13 1
n 23 1
n 28 1
n 29 1
n 34 1
n 36 1
n 37 2
n 39 1
n 40 1
n 44 1
n 46 1
n 47 1
n 58 2
n 61 1
n 62 1
n 64 1
n 65 1
n 66 1
n 69 1
n 70 2
n 73 1
n 74 1
n 75 2
n 76 1
n 78 1
n 79 1
n 82 2
n 86 2
n 87 1
n 88 1
n 89 1
n 91 2
n 93 1
n 94 1
n 95 2
n 96 1
n 97 1
n 98 2
